ssat_solver_solve2
#level: 2
Abc_NtkNodeNum(s->pNtk): 2153  , BDD limit: 10240
level 1: 20 element
Exist
existence_eliminate_scope
Abc_NtkIsBddLogic(pNtk): 0
Abc_NtkIsStrash(pNtk): 1
existence_eliminate_scope_aig
exist by BDD failed
Abc_NtkNodeNum(s->pNtk): 17422681  , BDD limit: 20907217
Build BDD success
level 0: 20 element
Random
c ssat solving in ABC
#var: 40
s SATISFIABLE
  > Upper bound = 1.000000e+00
  > Lower bound = 1.000000e+00
FINISHED CPU 3085.92 MEM 0 MAXMEM 3280232 STALE 0 MAXMEM_RSS 3142832
<time name="ALL">3085950</time>
real 3086.20
user 3577.93
sys 1269.61
